p edge 472 -
e 1 174
e 1 287
e 1 296
e 1 368
e 1 415
e 2 343
e 2 414
e 3 168
e 3 199
e 3 202
e 3 241
e 3 249
e 3 265
e 3 267
e 3 273
e 3 289
e 3 387
e 3 434
e 4 156
e 4 237
e 4 441
e 4 459
e 5 9
e 5 17
e 5 73
e 5 242
e 5 265
e 5 351
e 5 375
e 5 405
e 5 426
e 7 27
e 7 35
e 7 62
e 7 71
e 7 153
e 7 264
e 7 266
e 7 278
e 7 284
e 7 312
e 7 377
e 7 419
e 7 434
e 8 151
e 8 200
e 8 444
e 9 5
e 9 14
e 9 17
e 9 38
e 9 71
e 9 104
e 9 117
e 9 128
e 9 130
e 9 136
e 9 153
e 9 166
e 9 168
e 9 202
e 9 216
e 9 237
e 9 249
e 9 257
e 9 265
e 9 269
e 9 300
e 9 301
e 9 311
e 9 330
e 9 351
e 9 360
e 9 365
e 9 405
e 9 422
e 9 426
e 9 433
e 9 434
e 9 437
e 9 441
e 9 459
e 10 77
e 10 135
e 10 304
e 10 325
e 10 357
e 10 385
e 10 389
e 10 390
e 11 403
e 12 69
e 12 352
e 14 9
e 14 146
e 14 237
e 14 238
e 14 316
e 14 328
e 14 375
e 15 216
e 15 357
e 15 363
e 16 73
e 16 97
e 16 316
e 17 5
e 17 9
e 17 55
e 17 71
e 17 97
e 17 128
e 17 147
e 17 153
e 17 242
e 17 269
e 17 280
e 17 294
e 17 301
e 17 317
e 17 324
e 17 337
e 17 351
e 17 381
e 17 382
e 17 395
e 17 396
e 17 403
e 17 405
e 17 422
e 17 426
e 17 461
e 18 339
e 19 143
e 19 327
e 19 379
e 20 330
e 20 367
e 20 426
e 20 432
e 21 235
e 23 69
e 23 98
e 23 196
e 23 330
e 23 336
e 23 380
e 23 414
e 23 449
e 23 456
e 24 140
e 24 168
e 24 195
e 24 241
e 24 255
e 24 280
e 24 387
e 24 429
e 25 45
e 25 335
e 25 421
e 25 460
e 26 28
e 26 123
e 27 7
e 27 62
e 27 175
e 27 264
e 27 266
e 28 26
e 28 123
e 30 121
e 30 127
e 30 202
e 31 151
e 31 193
e 31 203
e 31 397
e 31 441
e 32 257
e 32 368
e 32 374
e 33 175
e 33 197
e 33 387
e 33 429
e 33 458
e 34 118
e 35 7
e 35 62
e 35 312
e 36 45
e 36 50
e 36 222
e 36 235
e 36 329
e 36 341
e 37 87
e 38 9
e 38 60
e 38 71
e 38 75
e 38 90
e 38 153
e 38 164
e 38 175
e 38 188
e 38 198
e 38 216
e 38 218
e 38 271
e 38 286
e 38 287
e 38 289
e 38 301
e 38 319
e 38 368
e 38 395
e 38 405
e 38 414
e 38 426
e 38 434
e 38 459
e 38 463
e 38 465
e 39 57
e 39 327
e 40 73
e 40 112
e 40 188
e 40 189
e 40 269
e 40 395
e 40 407
e 40 434
e 41 387
e 42 70
e 42 127
e 43 301
e 43 353
e 44 307
e 44 460
e 45 25
e 45 36
e 45 49
e 45 283
e 45 421
e 45 460
e 46 292
e 46 295
e 46 311
e 46 380
e 46 456
e 47 167
e 47 435
e 48 71
e 48 129
e 48 153
e 48 188
e 48 351
e 49 45
e 49 175
e 49 293
e 49 395
e 49 403
e 49 440
e 50 36
e 50 329
e 51 104
e 51 117
e 51 128
e 51 152
e 51 153
e 51 159
e 51 165
e 51 175
e 51 214
e 51 263
e 51 269
e 51 301
e 51 351
e 51 356
e 51 370
e 51 403
e 51 405
e 53 314
e 53 335
e 53 453
e 54 155
e 54 286
e 55 17
e 55 90
e 55 97
e 55 102
e 55 125
e 55 128
e 55 317
e 55 396
e 55 447
e 55 465
e 56 286
e 56 330
e 56 347
e 56 350
e 56 465
e 57 39
e 57 327
e 58 140
e 59 197
e 59 355
e 60 38
e 60 198
e 60 319
e 61 352
e 62 7
e 62 27
e 62 35
e 62 71
e 62 146
e 62 152
e 62 153
e 62 175
e 62 184
e 62 190
e 62 198
e 62 214
e 62 251
e 62 252
e 62 258
e 62 264
e 62 284
e 62 312
e 62 326
e 62 356
e 62 376
e 62 377
e 62 419
e 62 462
e 62 465
e 63 73
e 63 90
e 63 201
e 63 218
e 64 117
e 64 152
e 64 182
e 64 214
e 64 314
e 64 356
e 64 370
e 64 407
e 64 459
e 65 146
e 65 284
e 65 377
e 66 311
e 67 71
e 67 153
e 67 184
e 68 242
e 68 300
e 68 426
e 69 12
e 69 23
e 69 88
e 69 162
e 69 300
e 69 339
e 69 372
e 69 414
e 70 42
e 70 390
e 71 7
e 71 9
e 71 17
e 71 38
e 71 48
e 71 62
e 71 67
e 71 115
e 71 123
e 71 128
e 71 136
e 71 146
e 71 153
e 71 165
e 71 200
e 71 237
e 71 311
e 71 312
e 71 365
e 71 405
e 71 426
e 71 433
e 71 437
e 71 441
e 71 442
e 71 447
e 71 461
e 71 463
e 71 466
e 72 120
e 72 135
e 72 207
e 72 222
e 72 329
e 72 398
e 73 5
e 73 16
e 73 40
e 73 63
e 73 89
e 73 153
e 73 174
e 73 175
e 73 185
e 73 188
e 73 242
e 73 269
e 73 301
e 73 351
e 73 377
e 73 426
e 73 434
e 73 437
e 74 79
e 75 38
e 75 112
e 75 284
e 75 417
e 75 424
e 75 441
e 75 465
e 77 10
e 77 107
e 77 246
e 77 357
e 78 300
e 79 74
e 79 92
e 79 286
e 79 297
e 79 324
e 79 351
e 79 353
e 79 397
e 79 411
e 79 463
e 79 465
e 80 82
e 80 163
e 80 164
e 80 311
e 81 175
e 82 80
e 82 163
e 82 164
e 83 157
e 83 242
e 83 344
e 83 454
e 84 242
e 84 269
e 85 131
e 85 168
e 85 343
e 86 222
e 87 37
e 87 329
e 88 69
e 88 187
e 88 261
e 88 274
e 88 352
e 88 372
e 89 73
e 89 175
e 89 352
e 89 431
e 90 38
e 90 55
e 90 63
e 90 128
e 90 237
e 90 269
e 90 388
e 90 459
e 91 425
e 91 447
e 92 79
e 92 147
e 92 335
e 92 424
e 92 465
e 93 138
e 93 211
e 93 227
e 94 157
e 94 344
e 95 175
e 95 438
e 96 130
e 96 155
e 96 330
e 96 367
e 96 432
e 97 16
e 97 17
e 97 55
e 97 128
e 97 297
e 97 396
e 98 23
e 98 330
e 98 357
e 98 444
e 99 376
e 99 434
e 100 306
e 102 55
e 102 136
e 102 255
e 104 9
e 104 51
e 104 126
e 104 175
e 104 257
e 104 324
e 104 351
e 104 463
e 105 173
e 105 224
e 105 352
e 105 431
e 106 108
e 106 380
e 107 77
e 107 135
e 107 423
e 108 106
e 108 127
e 108 164
e 108 201
e 108 254
e 108 380
e 108 399
e 109 368
e 110 168
e 110 241
e 111 361
e 111 367
e 112 40
e 112 75
e 112 153
e 112 178
e 112 237
e 112 284
e 112 287
e 112 293
e 112 336
e 112 417
e 112 419
e 112 424
e 112 441
e 115 71
e 115 116
e 115 148
e 115 219
e 115 233
e 115 255
e 116 115
e 116 199
e 116 342
e 116 407
e 116 443
e 117 9
e 117 51
e 117 64
e 117 136
e 117 152
e 117 165
e 117 166
e 117 175
e 117 214
e 117 215
e 117 258
e 117 286
e 117 314
e 117 316
e 117 321
e 117 342
e 117 356
e 117 370
e 117 376
e 117 395
e 117 403
e 117 405
e 117 407
e 117 441
e 118 34
e 118 276
e 118 368
e 120 72
e 120 329
e 121 30
e 121 127
e 121 202
e 121 237
e 122 352
e 123 26
e 123 28
e 123 71
e 123 128
e 123 136
e 123 153
e 123 311
e 123 405
e 123 437
e 123 463
e 124 168
e 124 280
e 125 55
e 125 245
e 125 441
e 126 104
e 126 324
e 126 403
e 126 461
e 127 30
e 127 42
e 127 108
e 127 121
e 127 142
e 127 151
e 127 175
e 127 202
e 127 267
e 127 301
e 127 414
e 128 9
e 128 17
e 128 51
e 128 55
e 128 71
e 128 90
e 128 97
e 128 123
e 128 136
e 128 153
e 128 237
e 128 263
e 128 269
e 128 311
e 128 316
e 128 351
e 128 360
e 128 365
e 128 396
e 128 403
e 128 424
e 128 461
e 129 48
e 130 9
e 130 96
e 130 193
e 130 360
e 130 374
e 131 85
e 131 304
e 131 341
e 131 386
e 131 420
e 131 451
e 132 186
e 132 317
e 133 168
e 133 289
e 133 317
e 133 403
e 133 418
e 135 10
e 135 72
e 135 107
e 135 272
e 135 329
e 135 357
e 136 9
e 136 71
e 136 102
e 136 117
e 136 123
e 136 128
e 136 152
e 136 153
e 136 161
e 136 165
e 136 168
e 136 202
e 136 237
e 136 241
e 136 242
e 136 255
e 136 265
e 136 267
e 136 269
e 136 311
e 136 316
e 136 351
e 136 357
e 136 360
e 136 382
e 136 403
e 136 437
e 136 441
e 137 240
e 138 93
e 138 209
e 138 227
e 138 343
e 138 427
e 139 441
e 139 450
e 140 24
e 140 58
e 140 168
e 140 241
e 140 255
e 140 273
e 140 289
e 140 338
e 140 387
e 141 165
e 141 280
e 142 127
e 142 345
e 143 19
e 143 191
e 144 190
e 144 248
e 144 319
e 144 413
e 144 434
e 146 14
e 146 62
e 146 65
e 146 71
e 146 171
e 146 184
e 146 190
e 146 237
e 146 238
e 146 251
e 146 252
e 146 284
e 146 312
e 146 316
e 146 326
e 146 375
e 146 419
e 147 17
e 147 92
e 147 201
e 147 247
e 147 286
e 147 301
e 147 321
e 148 115
e 148 316
e 148 405
e 150 331
e 151 8
e 151 31
e 151 127
e 151 357
e 151 414
e 152 51
e 152 62
e 152 64
e 152 117
e 152 136
e 152 161
e 152 165
e 152 214
e 152 251
e 152 252
e 152 258
e 152 264
e 152 351
e 152 356
e 152 370
e 152 459
e 153 7
e 153 9
e 153 17
e 153 38
e 153 48
e 153 51
e 153 62
e 153 67
e 153 71
e 153 73
e 153 112
e 153 123
e 153 128
e 153 136
e 153 175
e 153 188
e 153 199
e 153 200
e 153 237
e 153 263
e 153 269
e 153 292
e 153 301
e 153 311
e 153 312
e 153 351
e 153 355
e 153 360
e 153 365
e 153 395
e 153 403
e 153 405
e 153 414
e 153 426
e 153 430
e 153 442
e 153 447
e 153 461
e 153 463
e 153 466
e 154 211
e 154 330
e 154 444
e 155 54
e 155 96
e 155 196
e 155 275
e 155 297
e 155 330
e 155 383
e 155 406
e 156 4
e 157 83
e 157 94
e 157 344
e 158 172
e 159 51
e 160 438
e 161 136
e 161 152
e 161 351
e 161 368
e 162 69
e 162 232
e 163 80
e 163 82
e 164 38
e 164 80
e 164 82
e 164 108
e 164 173
e 164 175
e 164 254
e 164 289
e 164 293
e 164 368
e 164 369
e 164 380
e 165 51
e 165 71
e 165 117
e 165 136
e 165 141
e 165 152
e 165 214
e 165 215
e 165 242
e 165 248
e 165 258
e 165 271
e 165 301
e 165 314
e 165 337
e 165 351
e 165 356
e 165 370
e 165 426
e 165 437
e 165 441
e 165 459
e 165 469
e 166 9
e 166 117
e 166 245
e 166 289
e 166 316
e 166 355
e 166 395
e 166 441
e 167 47
e 167 234
e 167 269
e 167 320
e 167 367
e 167 372
e 167 391
e 167 410
e 167 435
e 168 3
e 168 9
e 168 24
e 168 85
e 168 110
e 168 124
e 168 133
e 168 136
e 168 140
e 168 241
e 168 255
e 168 269
e 168 280
e 168 289
e 168 293
e 168 316
e 168 331
e 168 338
e 168 351
e 168 355
e 168 368
e 168 382
e 168 387
e 168 395
e 168 403
e 168 418
e 168 422
e 168 426
e 168 441
e 169 438
e 170 432
e 170 454
e 171 146
e 171 237
e 171 326
e 171 457
e 172 158
e 173 105
e 173 164
e 173 302
e 173 368
e 173 374
e 173 403
e 173 461
e 174 1
e 174 73
e 174 368
e 175 27
e 175 33
e 175 38
e 175 49
e 175 51
e 175 62
e 175 73
e 175 81
e 175 89
e 175 95
e 175 104
e 175 117
e 175 127
e 175 153
e 175 164
e 175 181
e 175 184
e 175 188
e 175 206
e 175 214
e 175 223
e 175 236
e 175 251
e 175 252
e 175 264
e 175 290
e 175 293
e 175 296
e 175 301
e 175 312
e 175 319
e 175 350
e 175 351
e 175 376
e 175 377
e 175 407
e 175 434
e 175 437
e 175 440
e 175 441
e 175 465
e 176 415
e 177 184
e 177 256
e 178 112
e 179 372
e 179 427
e 181 175
e 182 64
e 182 184
e 182 190
e 182 356
e 183 223
e 184 62
e 184 67
e 184 146
e 184 175
e 184 177
e 184 182
e 184 190
e 184 214
e 184 256
e 184 350
e 184 457
e 185 73
e 185 188
e 186 132
e 187 88
e 187 371
e 188 38
e 188 40
e 188 48
e 188 73
e 188 153
e 188 175
e 188 185
e 188 301
e 188 353
e 188 430
e 188 441
e 188 463
e 189 40
e 189 201
e 189 286
e 190 62
e 190 144
e 190 146
e 190 182
e 190 184
e 190 312
e 190 419
e 191 143
e 192 327
e 193 31
e 193 130
e 193 374
e 194 308
e 194 316
e 194 409
e 195 24
e 196 23
e 196 155
e 196 275
e 196 311
e 196 334
e 196 336
e 196 345
e 196 432
e 197 33
e 197 59
e 197 257
e 197 355
e 198 38
e 198 60
e 198 62
e 198 322
e 199 3
e 199 116
e 199 153
e 199 414
e 200 8
e 200 71
e 200 153
e 200 414
e 201 63
e 201 108
e 201 147
e 201 189
e 201 286
e 201 434
e 201 465
e 202 3
e 202 9
e 202 30
e 202 121
e 202 127
e 202 136
e 202 237
e 202 249
e 202 265
e 203 31
e 203 353
e 203 368
e 203 397
e 203 437
e 203 441
e 204 220
e 204 243
e 206 175
e 206 237
e 206 271
e 206 309
e 207 72
e 208 379
e 209 138
e 209 227
e 211 93
e 211 154
e 211 330
e 211 339
e 211 432
e 213 281
e 214 51
e 214 62
e 214 64
e 214 117
e 214 152
e 214 165
e 214 175
e 214 184
e 214 251
e 214 252
e 214 258
e 214 312
e 214 314
e 214 356
e 214 370
e 214 441
e 214 457
e 214 459
e 215 117
e 215 165
e 215 271
e 215 370
e 216 9
e 216 15
e 216 38
e 216 271
e 216 405
e 218 38
e 218 63
e 219 115
e 219 255
e 220 204
e 220 221
e 220 243
e 220 420
e 220 424
e 221 220
e 222 36
e 222 72
e 222 86
e 222 329
e 222 423
e 222 446
e 222 464
e 223 175
e 223 183
e 223 377
e 224 105
e 224 315
e 224 431
e 225 329
e 227 93
e 227 138
e 227 209
e 228 338
e 229 414
e 230 319
e 230 350
e 231 352
e 232 162
e 233 115
e 233 245
e 233 268
e 233 351
e 233 426
e 233 437
e 234 167
e 234 330
e 234 367
e 234 372
e 235 21
e 235 36
e 235 287
e 235 304
e 235 356
e 235 415
e 235 447
e 236 175
e 236 237
e 236 265
e 236 294
e 237 4
e 237 9
e 237 14
e 237 71
e 237 90
e 237 112
e 237 121
e 237 128
e 237 136
e 237 146
e 237 153
e 237 171
e 237 202
e 237 206
e 237 236
e 237 238
e 237 262
e 237 289
e 237 316
e 237 326
e 237 330
e 237 355
e 237 365
e 237 375
e 237 405
e 237 424
e 237 434
e 237 459
e 238 14
e 238 146
e 238 237
e 238 316
e 238 375
e 239 304
e 240 137
e 240 274
e 241 3
e 241 24
e 241 110
e 241 136
e 241 140
e 241 168
e 241 289
e 241 316
e 241 351
e 241 382
e 241 387
e 242 5
e 242 17
e 242 68
e 242 73
e 242 83
e 242 84
e 242 136
e 242 165
e 242 311
e 242 316
e 242 344
e 242 351
e 242 395
e 242 405
e 242 426
e 243 204
e 243 220
e 244 294
e 244 392
e 244 468
e 245 125
e 245 166
e 245 233
e 245 316
e 245 337
e 245 437
e 245 441
e 246 77
e 246 403
e 246 438
e 247 147
e 247 321
e 248 144
e 248 165
e 248 258
e 248 441
e 249 3
e 249 9
e 249 202
e 250 420
e 251 62
e 251 146
e 251 152
e 251 175
e 251 214
e 251 252
e 251 258
e 251 312
e 251 377
e 251 459
e 252 62
e 252 146
e 252 152
e 252 175
e 252 214
e 252 251
e 252 258
e 252 312
e 252 459
e 253 281
e 253 359
e 254 108
e 254 164
e 254 330
e 254 380
e 255 24
e 255 102
e 255 115
e 255 136
e 255 140
e 255 168
e 255 219
e 256 177
e 256 184
e 257 9
e 257 32
e 257 104
e 257 197
e 257 324
e 257 351
e 258 62
e 258 117
e 258 152
e 258 165
e 258 214
e 258 248
e 258 251
e 258 252
e 258 301
e 258 312
e 258 351
e 258 370
e 258 441
e 258 459
e 261 88
e 262 237
e 263 51
e 263 128
e 263 153
e 264 7
e 264 27
e 264 62
e 264 152
e 264 175
e 264 266
e 264 376
e 264 419
e 265 3
e 265 5
e 265 9
e 265 136
e 265 202
e 265 236
e 265 269
e 265 294
e 265 322
e 265 355
e 265 365
e 265 403
e 266 7
e 266 27
e 266 264
e 266 284
e 266 377
e 267 3
e 267 127
e 267 136
e 267 301
e 267 403
e 268 233
e 269 9
e 269 17
e 269 40
e 269 51
e 269 73
e 269 84
e 269 90
e 269 128
e 269 136
e 269 153
e 269 167
e 269 168
e 269 265
e 269 301
e 269 337
e 269 365
e 269 367
e 269 382
e 269 394
e 269 395
e 269 405
e 269 414
e 269 422
e 269 437
e 269 452
e 269 463
e 270 449
e 271 38
e 271 165
e 271 206
e 271 215
e 271 216
e 271 318
e 271 337
e 271 351
e 271 387
e 271 405
e 272 135
e 273 3
e 273 140
e 273 387
e 274 88
e 274 240
e 274 425
e 275 155
e 275 196
e 275 330
e 275 367
e 275 432
e 276 118
e 276 316
e 276 405
e 277 387
e 278 7
e 278 377
e 278 419
e 278 434
e 280 17
e 280 24
e 280 124
e 280 141
e 280 168
e 280 338
e 280 436
e 281 213
e 281 253
e 281 333
e 281 412
e 281 442
e 282 401
e 283 45
e 284 7
e 284 62
e 284 65
e 284 75
e 284 112
e 284 146
e 284 266
e 284 424
e 285 311
e 285 345
e 285 430
e 286 38
e 286 54
e 286 56
e 286 79
e 286 117
e 286 147
e 286 189
e 286 201
e 286 311
e 286 347
e 286 434
e 286 465
e 287 1
e 287 38
e 287 112
e 287 235
e 287 293
e 287 296
e 287 369
e 287 386
e 287 403
e 287 424
e 287 436
e 287 438
e 289 3
e 289 38
e 289 133
e 289 140
e 289 164
e 289 166
e 289 168
e 289 237
e 289 241
e 289 338
e 289 368
e 289 374
e 289 387
e 289 426
e 290 175
e 291 338
e 292 46
e 292 153
e 292 355
e 292 405
e 292 414
e 293 49
e 293 112
e 293 164
e 293 168
e 293 175
e 293 287
e 293 296
e 293 335
e 293 424
e 294 17
e 294 236
e 294 244
e 294 265
e 294 392
e 294 468
e 295 46
e 295 383
e 296 1
e 296 175
e 296 287
e 296 293
e 297 79
e 297 97
e 297 155
e 297 347
e 297 353
e 297 396
e 297 403
e 297 411
e 297 461
e 298 299
e 298 391
e 299 298
e 299 391
e 300 9
e 300 68
e 300 69
e 300 78
e 300 360
e 300 367
e 300 433
e 301 9
e 301 17
e 301 38
e 301 43
e 301 51
e 301 73
e 301 127
e 301 147
e 301 153
e 301 165
e 301 175
e 301 188
e 301 258
e 301 267
e 301 269
e 301 324
e 301 351
e 301 362
e 301 370
e 301 441
e 301 445
e 302 173
e 303 343
e 304 10
e 304 131
e 304 235
e 304 239
e 304 321
e 304 341
e 304 346
e 304 357
e 304 385
e 304 390
e 306 100
e 306 330
e 306 367
e 306 372
e 306 421
e 306 432
e 307 44
e 308 194
e 308 409
e 309 206
e 311 9
e 311 46
e 311 66
e 311 71
e 311 80
e 311 123
e 311 128
e 311 136
e 311 153
e 311 196
e 311 242
e 311 285
e 311 286
e 311 334
e 311 345
e 311 347
e 311 367
e 312 7
e 312 35
e 312 62
e 312 71
e 312 146
e 312 153
e 312 175
e 312 190
e 312 214
e 312 251
e 312 252
e 312 258
e 312 326
e 312 377
e 312 419
e 314 53
e 314 64
e 314 117
e 314 165
e 314 214
e 314 335
e 314 370
e 314 441
e 314 469
e 315 224
e 315 442
e 316 14
e 316 16
e 316 117
e 316 128
e 316 136
e 316 146
e 316 148
e 316 166
e 316 168
e 316 194
e 316 237
e 316 238
e 316 241
e 316 242
e 316 245
e 316 276
e 316 328
e 316 337
e 316 351
e 316 352
e 316 360
e 316 368
e 316 375
e 316 395
e 316 405
e 316 422
e 316 426
e 316 441
e 317 17
e 317 55
e 317 132
e 317 133
e 317 421
e 317 422
e 318 271
e 318 405
e 319 38
e 319 60
e 319 144
e 319 175
e 319 230
e 319 350
e 319 377
e 320 167
e 321 117
e 321 147
e 321 247
e 321 304
e 321 370
e 322 198
e 322 265
e 323 330
e 324 17
e 324 79
e 324 104
e 324 126
e 324 257
e 324 301
e 324 351
e 324 353
e 324 411
e 324 463
e 325 10
e 325 390
e 325 436
e 326 62
e 326 146
e 326 171
e 326 237
e 326 312
e 326 457
e 327 19
e 327 39
e 327 57
e 327 192
e 327 389
e 328 14
e 328 316
e 328 384
e 328 405
e 328 441
e 329 36
e 329 50
e 329 72
e 329 87
e 329 120
e 329 135
e 329 222
e 329 225
e 329 390
e 330 9
e 330 20
e 330 23
e 330 56
e 330 96
e 330 98
e 330 154
e 330 155
e 330 211
e 330 234
e 330 237
e 330 254
e 330 275
e 330 306
e 330 323
e 330 357
e 330 365
e 330 367
e 330 373
e 330 380
e 330 406
e 330 410
e 330 414
e 330 432
e 330 449
e 330 456
e 331 150
e 331 168
e 333 281
e 333 351
e 334 196
e 334 311
e 334 345
e 335 25
e 335 53
e 335 92
e 335 293
e 335 314
e 335 465
e 336 23
e 336 112
e 336 196
e 336 414
e 336 456
e 337 17
e 337 165
e 337 245
e 337 269
e 337 271
e 337 316
e 337 351
e 337 426
e 337 441
e 338 140
e 338 168
e 338 228
e 338 280
e 338 289
e 338 291
e 339 18
e 339 69
e 339 211
e 339 391
e 339 415
e 339 435
e 340 395
e 340 396
e 340 403
e 341 36
e 341 131
e 341 304
e 341 390
e 342 116
e 342 117
e 342 370
e 342 407
e 343 2
e 343 85
e 343 138
e 343 303
e 343 344
e 343 403
e 343 418
e 343 425
e 343 427
e 343 438
e 343 443
e 343 454
e 344 83
e 344 94
e 344 157
e 344 242
e 344 343
e 345 142
e 345 196
e 345 285
e 345 311
e 345 334
e 345 459
e 346 304
e 347 56
e 347 286
e 347 297
e 347 311
e 347 350
e 347 415
e 347 425
e 347 465
e 349 449
e 350 56
e 350 175
e 350 184
e 350 230
e 350 319
e 350 347
e 350 377
e 350 465
e 351 5
e 351 9
e 351 17
e 351 48
e 351 51
e 351 73
e 351 79
e 351 104
e 351 128
e 351 136
e 351 152
e 351 153
e 351 161
e 351 165
e 351 168
e 351 175
e 351 233
e 351 241
e 351 242
e 351 257
e 351 258
e 351 271
e 351 301
e 351 316
e 351 324
e 351 333
e 351 337
e 351 368
e 351 370
e 351 382
e 351 405
e 351 426
e 351 437
e 351 441
e 351 461
e 351 463
e 352 12
e 352 61
e 352 88
e 352 89
e 352 105
e 352 122
e 352 231
e 352 316
e 352 431
e 353 43
e 353 79
e 353 188
e 353 203
e 353 297
e 353 324
e 353 397
e 353 411
e 355 59
e 355 153
e 355 166
e 355 168
e 355 197
e 355 237
e 355 265
e 355 292
e 355 396
e 355 405
e 355 414
e 355 447
e 356 51
e 356 62
e 356 64
e 356 117
e 356 152
e 356 165
e 356 182
e 356 214
e 356 235
e 356 370
e 356 376
e 356 441
e 357 10
e 357 15
e 357 77
e 357 98
e 357 135
e 357 136
e 357 151
e 357 304
e 357 330
e 357 372
e 357 389
e 357 414
e 358 430
e 359 253
e 359 387
e 360 9
e 360 128
e 360 130
e 360 136
e 360 153
e 360 300
e 360 316
e 360 367
e 360 372
e 360 414
e 360 426
e 360 430
e 360 432
e 360 435
e 360 441
e 361 111
e 362 301
e 363 15
e 363 400
e 363 449
e 365 9
e 365 71
e 365 128
e 365 153
e 365 237
e 365 265
e 365 269
e 365 330
e 365 403
e 365 424
e 365 434
e 365 437
e 367 20
e 367 96
e 367 111
e 367 167
e 367 234
e 367 269
e 367 275
e 367 300
e 367 306
e 367 311
e 367 330
e 367 360
e 367 395
e 367 403
e 367 410
e 367 426
e 368 1
e 368 32
e 368 38
e 368 109
e 368 118
e 368 161
e 368 164
e 368 168
e 368 173
e 368 174
e 368 203
e 368 289
e 368 316
e 368 351
e 368 369
e 368 374
e 368 397
e 368 405
e 369 164
e 369 287
e 369 368
e 369 405
e 370 51
e 370 64
e 370 117
e 370 152
e 370 165
e 370 214
e 370 215
e 370 258
e 370 301
e 370 314
e 370 321
e 370 342
e 370 351
e 370 356
e 370 376
e 370 395
e 370 403
e 370 407
e 370 441
e 370 459
e 371 187
e 372 69
e 372 88
e 372 167
e 372 179
e 372 234
e 372 306
e 372 357
e 372 360
e 372 391
e 372 425
e 372 435
e 373 330
e 374 32
e 374 130
e 374 173
e 374 193
e 374 289
e 374 368
e 375 5
e 375 14
e 375 146
e 375 237
e 375 238
e 375 316
e 376 62
e 376 99
e 376 117
e 376 175
e 376 264
e 376 356
e 376 370
e 377 7
e 377 62
e 377 65
e 377 73
e 377 175
e 377 223
e 377 251
e 377 266
e 377 278
e 377 312
e 377 319
e 377 350
e 377 419
e 377 434
e 377 462
e 379 19
e 379 208
e 380 23
e 380 46
e 380 106
e 380 108
e 380 164
e 380 254
e 380 330
e 380 414
e 380 456
e 381 17
e 382 17
e 382 136
e 382 168
e 382 241
e 382 269
e 382 351
e 382 424
e 382 459
e 383 155
e 383 295
e 384 328
e 385 10
e 385 304
e 385 389
e 386 131
e 386 287
e 386 414
e 386 420
e 386 448
e 386 451
e 387 3
e 387 24
e 387 33
e 387 41
e 387 140
e 387 168
e 387 241
e 387 271
e 387 273
e 387 277
e 387 289
e 387 359
e 387 402
e 387 405
e 388 90
e 389 10
e 389 327
e 389 357
e 389 385
e 390 10
e 390 70
e 390 304
e 390 325
e 390 329
e 390 341
e 391 167
e 391 298
e 391 299
e 391 339
e 391 372
e 391 410
e 391 435
e 392 244
e 392 294
e 392 468
e 393 408
e 394 269
e 394 414
e 395 17
e 395 38
e 395 40
e 395 49
e 395 117
e 395 153
e 395 166
e 395 168
e 395 242
e 395 269
e 395 316
e 395 340
e 395 367
e 395 370
e 395 403
e 395 405
e 395 426
e 396 17
e 396 55
e 396 97
e 396 128
e 396 297
e 396 340
e 396 355
e 397 31
e 397 79
e 397 203
e 397 353
e 397 368
e 397 441
e 398 72
e 399 108
e 400 363
e 401 282
e 401 414
e 402 387
e 403 11
e 403 17
e 403 49
e 403 51
e 403 117
e 403 126
e 403 128
e 403 133
e 403 136
e 403 153
e 403 168
e 403 173
e 403 246
e 403 265
e 403 267
e 403 287
e 403 297
e 403 340
e 403 343
e 403 365
e 403 367
e 403 370
e 403 395
e 403 411
e 403 414
e 403 425
e 403 426
e 403 438
e 403 461
e 403 470
e 405 5
e 405 9
e 405 17
e 405 38
e 405 51
e 405 71
e 405 117
e 405 123
e 405 148
e 405 153
e 405 216
e 405 237
e 405 242
e 405 269
e 405 271
e 405 276
e 405 292
e 405 316
e 405 318
e 405 328
e 405 351
e 405 355
e 405 368
e 405 369
e 405 387
e 405 395
e 405 414
e 405 426
e 405 433
e 405 437
e 405 452
e 405 459
e 405 463
e 405 465
e 406 155
e 406 330
e 407 40
e 407 64
e 407 116
e 407 117
e 407 175
e 407 342
e 407 370
e 408 393
e 409 194
e 409 308
e 410 167
e 410 330
e 410 367
e 410 391
e 410 435
e 411 79
e 411 297
e 411 324
e 411 353
e 411 403
e 412 281
e 412 440
e 413 144
e 414 2
e 414 23
e 414 38
e 414 69
e 414 127
e 414 151
e 414 153
e 414 199
e 414 200
e 414 229
e 414 269
e 414 292
e 414 330
e 414 336
e 414 355
e 414 357
e 414 360
e 414 380
e 414 386
e 414 394
e 414 401
e 414 403
e 414 405
e 414 415
e 414 425
e 415 1
e 415 176
e 415 235
e 415 339
e 415 347
e 415 414
e 416 463
e 417 75
e 417 112
e 417 424
e 418 133
e 418 168
e 418 343
e 418 421
e 418 438
e 419 7
e 419 62
e 419 112
e 419 146
e 419 190
e 419 264
e 419 278
e 419 312
e 419 377
e 420 131
e 420 220
e 420 250
e 420 386
e 420 448
e 420 451
e 421 25
e 421 45
e 421 306
e 421 317
e 421 418
e 421 438
e 421 460
e 422 9
e 422 17
e 422 168
e 422 269
e 422 316
e 422 317
e 423 107
e 423 222
e 423 438
e 424 75
e 424 92
e 424 112
e 424 128
e 424 220
e 424 237
e 424 284
e 424 287
e 424 293
e 424 365
e 424 382
e 424 417
e 424 441
e 424 465
e 425 91
e 425 274
e 425 343
e 425 347
e 425 372
e 425 403
e 425 414
e 425 438
e 426 5
e 426 9
e 426 17
e 426 20
e 426 38
e 426 68
e 426 71
e 426 73
e 426 153
e 426 165
e 426 168
e 426 233
e 426 242
e 426 289
e 426 316
e 426 337
e 426 351
e 426 360
e 426 367
e 426 395
e 426 403
e 426 405
e 426 437
e 426 441
e 427 138
e 427 179
e 427 343
e 427 438
e 427 454
e 427 455
e 429 24
e 429 33
e 430 153
e 430 188
e 430 285
e 430 358
e 430 360
e 431 89
e 431 105
e 431 224
e 431 352
e 432 20
e 432 96
e 432 170
e 432 196
e 432 211
e 432 275
e 432 306
e 432 330
e 432 360
e 433 9
e 433 71
e 433 300
e 433 405
e 433 463
e 434 3
e 434 7
e 434 9
e 434 38
e 434 40
e 434 73
e 434 99
e 434 144
e 434 175
e 434 201
e 434 237
e 434 278
e 434 286
e 434 365
e 434 377
e 435 47
e 435 167
e 435 339
e 435 360
e 435 372
e 435 391
e 435 410
e 436 280
e 436 287
e 436 325
e 436 454
e 437 9
e 437 71
e 437 73
e 437 123
e 437 136
e 437 165
e 437 175
e 437 203
e 437 233
e 437 245
e 437 269
e 437 351
e 437 365
e 437 405
e 437 426
e 437 441
e 437 459
e 437 463
e 438 95
e 438 160
e 438 169
e 438 246
e 438 287
e 438 343
e 438 403
e 438 418
e 438 421
e 438 423
e 438 425
e 438 427
e 440 49
e 440 175
e 440 412
e 441 4
e 441 9
e 441 31
e 441 71
e 441 75
e 441 112
e 441 117
e 441 125
e 441 136
e 441 139
e 441 165
e 441 166
e 441 168
e 441 175
e 441 188
e 441 203
e 441 214
e 441 245
e 441 248
e 441 258
e 441 301
e 441 314
e 441 316
e 441 328
e 441 337
e 441 351
e 441 356
e 441 360
e 441 370
e 441 397
e 441 424
e 441 426
e 441 437
e 441 445
e 442 71
e 442 153
e 442 281
e 442 315
e 442 466
e 443 116
e 443 343
e 444 8
e 444 98
e 444 154
e 445 301
e 445 441
e 446 222
e 446 464
e 447 55
e 447 71
e 447 91
e 447 153
e 447 235
e 447 355
e 447 461
e 448 386
e 448 420
e 448 451
e 449 23
e 449 270
e 449 330
e 449 349
e 449 363
e 450 139
e 451 131
e 451 386
e 451 420
e 451 448
e 452 269
e 452 405
e 453 53
e 454 83
e 454 170
e 454 343
e 454 427
e 454 436
e 455 427
e 456 23
e 456 46
e 456 330
e 456 336
e 456 380
e 457 171
e 457 184
e 457 214
e 457 326
e 458 33
e 459 4
e 459 9
e 459 38
e 459 64
e 459 90
e 459 152
e 459 165
e 459 214
e 459 237
e 459 251
e 459 252
e 459 258
e 459 345
e 459 370
e 459 382
e 459 405
e 459 437
e 460 25
e 460 44
e 460 45
e 460 421
e 461 17
e 461 71
e 461 126
e 461 128
e 461 153
e 461 173
e 461 297
e 461 351
e 461 403
e 461 447
e 462 62
e 462 377
e 463 38
e 463 71
e 463 79
e 463 104
e 463 123
e 463 153
e 463 188
e 463 269
e 463 324
e 463 351
e 463 405
e 463 416
e 463 433
e 463 437
e 464 222
e 464 446
e 465 38
e 465 55
e 465 56
e 465 62
e 465 75
e 465 79
e 465 92
e 465 175
e 465 201
e 465 286
e 465 335
e 465 347
e 465 350
e 465 405
e 465 424
e 466 71
e 466 153
e 466 442
e 468 244
e 468 294
e 468 392
e 469 165
e 469 314
e 470 403
